; benchmark generated from python API
(set-info :status unknown)
(declare-fun x_day () Int)
(declare-fun x_month () Int)
(declare-fun x_year () Int)
(declare-fun x_epoch () Int)
(declare-fun y_day () Int)
(declare-fun y_month () Int)
(declare-fun y_year () Int)
(declare-fun y_epoch () Int)
(declare-fun x_shift_period_767237_day () Int)
(declare-fun x_shift_period_767237_month () Int)
(declare-fun x_shift_period_767237_year () Int)
(declare-fun x_shift_period_767237_epoch () Int)
(assert
 (let (($x638 (= (mod x_year 4) 0)))
 (let (($x273 (= (mod x_year 100) 0)))
 (let (($x679 (= (mod x_year 400) 0)))
 (let (($x3912 (ite $x679 true (ite $x273 false $x638))))
 (let (($x1580 (= x_month 9)))
 (let ((?x1526 (ite $x1580 243 (ite (= x_month 10) 273 (ite (= x_month 11) 304 334)))))
 (let (($x399 (= x_month 6)))
 (let ((?x490 (ite $x399 151 (ite (= x_month 7) 181 (ite (= x_month 8) 212 ?x1526)))))
 (let (($x1789 (= x_month 4)))
 (let ((?x610 (ite (= x_month 3) 59 (ite $x1789 90 (ite (= x_month 5) 120 ?x490)))))
 (let (($x248 (= x_month 2)))
 (let (($x113 (= x_month 1)))
 (let ((?x1519 (ite $x113 0 (ite $x248 31 ?x610))))
 (let ((?x420 (- (+ (* 365 (- x_year 1)) (div (- x_year 1) 4)) (div (- x_year 1) 100))))
 (let ((?x1324 (+ (+ ?x420 (div (- x_year 1) 400)) (+ ?x1519 (ite (and $x3912 (> x_month 2)) 1 0)))))
 (let (($x3906 (<= x_year 2400)))
 (let (($x590 (>= x_year 1600)))
 (let ((?x941 (ite (or $x1789 $x399 $x1580 (= x_month 11)) 30 31)))
 (let ((?x139 (ite $x248 (ite $x3912 29 28) ?x941)))
 (let (($x444 (>= x_day 1)))
 (let (($x1167 (<= x_month 12)))
 (let (($x1264 (>= x_month 1)))
 (and $x1264 $x1167 $x444 (<= x_day ?x139) $x590 $x3906 (= x_epoch (+ ?x1324 (- x_day 1)))))))))))))))))))))))))))
(assert
 (let (($x3901 (= (mod y_year 4) 0)))
 (let (($x3539 (= (mod y_year 100) 0)))
 (let (($x3286 (= (mod y_year 400) 0)))
 (let (($x3834 (ite $x3286 true (ite $x3539 false $x3901))))
 (let (($x1940 (= y_month 9)))
 (let ((?x1735 (ite $x1940 243 (ite (= y_month 10) 273 (ite (= y_month 11) 304 334)))))
 (let (($x2822 (= y_month 6)))
 (let ((?x2969 (ite $x2822 151 (ite (= y_month 7) 181 (ite (= y_month 8) 212 ?x1735)))))
 (let (($x985 (= y_month 4)))
 (let ((?x1852 (ite (= y_month 3) 59 (ite $x985 90 (ite (= y_month 5) 120 ?x2969)))))
 (let (($x2030 (= y_month 2)))
 (let ((?x2826 (ite (= y_month 1) 0 (ite $x2030 31 ?x1852))))
 (let ((?x3232 (- (+ (* 365 (- y_year 1)) (div (- y_year 1) 4)) (div (- y_year 1) 100))))
 (let ((?x3589 (+ (+ ?x3232 (div (- y_year 1) 400)) (+ ?x2826 (ite (and $x3834 (> y_month 2)) 1 0)))))
 (let (($x1125 (<= y_year 2400)))
 (let (($x2400 (>= y_year 1600)))
 (let ((?x3068 (ite (or $x985 $x2822 $x1940 (= y_month 11)) 30 31)))
 (let (($x1887 (>= y_day 1)))
 (let (($x3454 (<= y_month 12)))
 (let (($x2029 (>= y_month 1)))
 (and $x2029 $x3454 $x1887 (<= y_day (ite $x2030 (ite $x3834 29 28) ?x3068)) $x2400 $x1125 (= y_epoch (+ ?x3589 (- y_day 1)))))))))))))))))))))))))
(assert
 (let (($x2086 (= x_day 15)))
 (let (($x113 (= x_month 1)))
 (let (($x2615 (= x_year 2022)))
 (and $x2615 $x113 $x2086)))))
(assert
 (let (($x1300 (= (mod x_shift_period_767237_year 4) 0)))
 (let (($x349 (= (mod x_shift_period_767237_year 100) 0)))
 (let (($x430 (= (mod x_shift_period_767237_year 400) 0)))
 (let (($x433 (ite $x430 true (ite $x349 false $x1300))))
 (let ((?x2250 (ite (= x_shift_period_767237_month 10) 273 (ite (= x_shift_period_767237_month 11) 304 334))))
 (let (($x958 (= x_shift_period_767237_month 9)))
 (let ((?x2526 (ite (= x_shift_period_767237_month 7) 181 (ite (= x_shift_period_767237_month 8) 212 (ite $x958 243 ?x2250)))))
 (let (($x3813 (= x_shift_period_767237_month 6)))
 (let (($x319 (= x_shift_period_767237_month 4)))
 (let ((?x3632 (ite $x319 90 (ite (= x_shift_period_767237_month 5) 120 (ite $x3813 151 ?x2526)))))
 (let (($x746 (= x_shift_period_767237_month 2)))
 (let ((?x3321 (ite (= x_shift_period_767237_month 1) 0 (ite $x746 31 (ite (= x_shift_period_767237_month 3) 59 ?x3632)))))
 (let ((?x1095 (+ ?x3321 (ite (and $x433 (> x_shift_period_767237_month 2)) 1 0))))
 (let ((?x3680 (+ (* 365 (- x_shift_period_767237_year 1)) (div (- x_shift_period_767237_year 1) 4))))
 (let ((?x3587 (+ (- ?x3680 (div (- x_shift_period_767237_year 1) 100)) (div (- x_shift_period_767237_year 1) 400))))
 (let (($x1226 (= x_shift_period_767237_epoch (+ (+ ?x3587 ?x1095) (- x_shift_period_767237_day 1)))))
 (let (($x1449 (<= x_shift_period_767237_year 2400)))
 (let (($x1505 (>= x_shift_period_767237_year 1600)))
 (let ((?x3591 (ite (or $x319 $x3813 $x958 (= x_shift_period_767237_month 11)) 30 31)))
 (let (($x3056 (>= x_shift_period_767237_day 1)))
 (let (($x2716 (<= x_shift_period_767237_month 12)))
 (let (($x2598 (>= x_shift_period_767237_month 1)))
 (and $x2598 $x2716 $x3056 (<= x_shift_period_767237_day (ite $x746 (ite $x433 29 28) ?x3591)) $x1505 $x1449 $x1226))))))))))))))))))))))))
(assert
 (let ((?x3800 (+ (mod (+ (+ (* 12 x_year) (- x_month 1)) 13) 12) 1)))
 (let (($x3060 (= ?x3800 11)))
 (let (($x2886 (= ?x3800 9)))
 (let (($x2502 (= ?x3800 6)))
 (let (($x3777 (= ?x3800 4)))
 (let ((?x468 (* 12 x_year)))
 (let ((?x283 (+ ?x468 (- x_month 1))))
 (let ((?x492 (+ ?x283 13)))
 (let ((?x1030 (div ?x492 12)))
 (let (($x1230 (ite (= (mod ?x1030 400) 0) true (ite (= (mod ?x1030 100) 0) false (= (mod ?x1030 4) 0)))))
 (let (($x3104 (= ?x3800 2)))
 (let ((?x576 (ite $x3104 (ite $x1230 29 28) (ite (or $x3777 $x2502 $x2886 $x3060) 30 31))))
 (let ((?x313 (ite (<= x_day ?x576) x_day ?x576)))
 (let (($x284 (= x_month 11)))
 (let (($x1580 (= x_month 9)))
 (let (($x399 (= x_month 6)))
 (let (($x1789 (= x_month 4)))
 (let ((?x941 (ite (or $x1789 $x399 $x1580 $x284) 30 31)))
 (let (($x638 (= (mod x_year 4) 0)))
 (let (($x273 (= (mod x_year 100) 0)))
 (let (($x679 (= (mod x_year 400) 0)))
 (let (($x3912 (ite $x679 true (ite $x273 false $x638))))
 (let (($x248 (= x_month 2)))
 (let ((?x139 (ite $x248 (ite $x3912 29 28) ?x941)))
 (let (($x239 (= x_day ?x139)))
 (let ((?x2490 (ite (= ?x3800 8) 212 (ite $x2886 243 (ite (= ?x3800 10) 273 (ite $x3060 304 334))))))
 (let ((?x3838 (ite (= ?x3800 5) 120 (ite $x2502 151 (ite (= ?x3800 7) 181 ?x2490)))))
 (let ((?x3784 (ite (= ?x3800 1) 0 (ite $x3104 31 (ite (= ?x3800 3) 59 (ite $x3777 90 ?x3838))))))
 (let ((?x2840 (- (+ (* 365 (- ?x1030 1)) (div (- ?x1030 1) 4)) (div (- ?x1030 1) 100))))
 (let ((?x2746 (+ (+ ?x2840 (div (- ?x1030 1) 400)) (+ ?x3784 (ite (and $x1230 (> ?x3800 2)) 1 0)))))
 (= x_shift_period_767237_epoch (+ (+ ?x2746 (- (ite false (ite $x239 ?x576 ?x313) ?x313) 1)) 40)))))))))))))))))))))))))))))))))
(assert
 (= y_epoch x_shift_period_767237_epoch))
(assert
 (not (and (= y_year 2023) (= y_month 2) (= y_day 24))))
(check-sat)
